(set-logic HORN)
(declare-datatypes ((Nat_10 0)) (((Z_31 ) (S_10 (unS_10 Nat_10)))))
(declare-fun diseqNat_10 (Nat_10 Nat_10) Bool)
(declare-fun unS_11 (Nat_10 Nat_10) Bool)
(declare-fun isZ_10 (Nat_10) Bool)
(declare-fun isS_10 (Nat_10) Bool)
(assert (forall ((x_363 Nat_10))
	(unS_11 x_363 (S_10 x_363))))
(assert (isZ_10 Z_31))
(assert (forall ((x_365 Nat_10))
	(isS_10 (S_10 x_365))))
(assert (forall ((x_366 Nat_10))
	(diseqNat_10 Z_31 (S_10 x_366))))
(assert (forall ((x_367 Nat_10))
	(diseqNat_10 (S_10 x_367) Z_31)))
(assert (forall ((x_368 Nat_10) (x_369 Nat_10))
	(=> (diseqNat_10 x_368 x_369)
	    (diseqNat_10 (S_10 x_368) (S_10 x_369)))))
(declare-fun add_5 (Nat_10 Nat_10 Nat_10) Bool)
(declare-fun minus_5 (Nat_10 Nat_10 Nat_10) Bool)
(declare-fun le_5 (Nat_10 Nat_10) Bool)
(declare-fun ge_5 (Nat_10 Nat_10) Bool)
(declare-fun lt_5 (Nat_10 Nat_10) Bool)
(declare-fun gt_5 (Nat_10 Nat_10) Bool)
(declare-fun mult_5 (Nat_10 Nat_10 Nat_10) Bool)
(declare-fun div_5 (Nat_10 Nat_10 Nat_10) Bool)
(declare-fun mod_5 (Nat_10 Nat_10 Nat_10) Bool)
(assert (forall ((y_27 Nat_10))
	(add_5 y_27 Z_31 y_27)))
(assert (forall ((x_339 Nat_10) (y_27 Nat_10) (r_5 Nat_10))
	(=> (add_5 r_5 x_339 y_27)
	    (add_5 (S_10 r_5) (S_10 x_339) y_27))))
(assert (forall ((y_27 Nat_10))
	(minus_5 Z_31 Z_31 y_27)))
(assert (forall ((x_339 Nat_10) (y_27 Nat_10) (r_5 Nat_10))
	(=> (minus_5 r_5 x_339 y_27)
	    (minus_5 (S_10 r_5) (S_10 x_339) y_27))))
(assert (forall ((y_27 Nat_10))
	(le_5 Z_31 y_27)))
(assert (forall ((x_339 Nat_10) (y_27 Nat_10))
	(=> (le_5 x_339 y_27)
	    (le_5 (S_10 x_339) (S_10 y_27)))))
(assert (forall ((y_27 Nat_10))
	(ge_5 y_27 Z_31)))
(assert (forall ((x_339 Nat_10) (y_27 Nat_10))
	(=> (ge_5 x_339 y_27)
	    (ge_5 (S_10 x_339) (S_10 y_27)))))
(assert (forall ((y_27 Nat_10))
	(lt_5 Z_31 (S_10 y_27))))
(assert (forall ((x_339 Nat_10) (y_27 Nat_10))
	(=> (lt_5 x_339 y_27)
	    (lt_5 (S_10 x_339) (S_10 y_27)))))
(assert (forall ((y_27 Nat_10))
	(gt_5 (S_10 y_27) Z_31)))
(assert (forall ((x_339 Nat_10) (y_27 Nat_10))
	(=> (gt_5 x_339 y_27)
	    (gt_5 (S_10 x_339) (S_10 y_27)))))
(assert (forall ((y_27 Nat_10))
	(mult_5 Z_31 Z_31 y_27)))
(assert (forall ((x_339 Nat_10) (y_27 Nat_10) (r_5 Nat_10) (z_32 Nat_10))
	(=>	(and (mult_5 r_5 x_339 y_27)
			(add_5 z_32 r_5 y_27))
		(mult_5 z_32 (S_10 x_339) y_27))))
(assert (forall ((x_339 Nat_10) (y_27 Nat_10))
	(=> (lt_5 x_339 y_27)
	    (div_5 Z_31 x_339 y_27))))
(assert (forall ((x_339 Nat_10) (y_27 Nat_10) (r_5 Nat_10) (z_32 Nat_10))
	(=>	(and (ge_5 x_339 y_27)
			(minus_5 z_32 x_339 y_27)
			(div_5 r_5 z_32 y_27))
		(div_5 (S_10 r_5) x_339 y_27))))
(assert (forall ((x_339 Nat_10) (y_27 Nat_10))
	(=> (lt_5 x_339 y_27)
	    (mod_5 x_339 x_339 y_27))))
(assert (forall ((x_339 Nat_10) (y_27 Nat_10) (r_5 Nat_10) (z_32 Nat_10))
	(=>	(and (ge_5 x_339 y_27)
			(minus_5 z_32 x_339 y_27)
			(mod_5 r_5 z_32 y_27))
		(mod_5 r_5 x_339 y_27))))
(declare-datatypes ((list_7 0)) (((nil_7 ) (cons_7 (head_14 Nat_10) (tail_14 list_7)))))
(declare-fun diseqlist_7 (list_7 list_7) Bool)
(declare-fun head_15 (Nat_10 list_7) Bool)
(declare-fun tail_15 (list_7 list_7) Bool)
(declare-fun isnil_7 (list_7) Bool)
(declare-fun iscons_7 (list_7) Bool)
(assert (forall ((x_341 Nat_10) (x_342 list_7))
	(head_15 x_341 (cons_7 x_341 x_342))))
(assert (forall ((x_341 Nat_10) (x_342 list_7))
	(tail_15 x_342 (cons_7 x_341 x_342))))
(assert (isnil_7 nil_7))
(assert (forall ((x_344 Nat_10) (x_345 list_7))
	(iscons_7 (cons_7 x_344 x_345))))
(assert (forall ((x_346 Nat_10) (x_347 list_7))
	(diseqlist_7 nil_7 (cons_7 x_346 x_347))))
(assert (forall ((x_348 Nat_10) (x_349 list_7))
	(diseqlist_7 (cons_7 x_348 x_349) nil_7)))
(assert (forall ((x_350 Nat_10) (x_351 list_7) (x_352 Nat_10) (x_353 list_7))
	(=> (diseqNat_10 x_350 x_352)
	    (diseqlist_7 (cons_7 x_350 x_351) (cons_7 x_352 x_353)))))
(assert (forall ((x_350 Nat_10) (x_351 list_7) (x_352 Nat_10) (x_353 list_7))
	(=> (diseqlist_7 x_351 x_353)
	    (diseqlist_7 (cons_7 x_350 x_351) (cons_7 x_352 x_353)))))
(declare-datatypes ((Nat_9 0)) (((Z_28 ) (S_9 (projS_8 Nat_9)))))
(declare-fun diseqNat_9 (Nat_9 Nat_9) Bool)
(declare-fun projS_9 (Nat_9 Nat_9) Bool)
(declare-fun isZ_9 (Nat_9) Bool)
(declare-fun isS_9 (Nat_9) Bool)
(assert (forall ((x_355 Nat_9))
	(projS_9 x_355 (S_9 x_355))))
(assert (isZ_9 Z_28))
(assert (forall ((x_357 Nat_9))
	(isS_9 (S_9 x_357))))
(assert (forall ((x_358 Nat_9))
	(diseqNat_9 Z_28 (S_9 x_358))))
(assert (forall ((x_359 Nat_9))
	(diseqNat_9 (S_9 x_359) Z_28)))
(assert (forall ((x_360 Nat_9) (x_361 Nat_9))
	(=> (diseqNat_9 x_360 x_361)
	    (diseqNat_9 (S_9 x_360) (S_9 x_361)))))
(declare-fun len_1 (Nat_9 list_7) Bool)
(assert (forall ((x_325 Nat_9) (y_24 Nat_10) (xs_11 list_7))
	(=> (len_1 x_325 xs_11)
	    (len_1 (S_9 x_325) (cons_7 y_24 xs_11)))))
(assert (len_1 Z_28 nil_7))
(declare-fun drop_1 (list_7 Nat_9 list_7) Bool)
(assert (forall ((x_327 list_7) (x_319 Nat_10) (x_320 list_7) (z_29 Nat_9))
	(=> (drop_1 x_327 z_29 x_320)
	    (drop_1 x_327 (S_9 z_29) (cons_7 x_319 x_320)))))
(assert (forall ((z_29 Nat_9))
	(drop_1 nil_7 (S_9 z_29) nil_7)))
(assert (forall ((x_330 list_7))
	(drop_1 x_330 Z_28 x_330)))
(declare-fun x_321 (Nat_9 Nat_9 Nat_9) Bool)
(assert (forall ((x_331 Nat_9) (x_323 Nat_9) (z_30 Nat_9))
	(=> (x_321 x_331 z_30 x_323)
	    (x_321 x_331 (S_9 z_30) (S_9 x_323)))))
(assert (forall ((z_30 Nat_9))
	(x_321 (S_9 z_30) (S_9 z_30) Z_28)))
(assert (forall ((y_26 Nat_9))
	(x_321 Z_28 Z_28 y_26)))
(assert (forall ((x_335 list_7) (x_336 Nat_9) (x_337 Nat_9) (x_338 Nat_9) (n_0 Nat_9) (xs_12 list_7))
	(=>	(and true
			(diseqNat_9 x_336 x_338)
			(drop_1 x_335 n_0 xs_12)
			(len_1 x_336 x_335)
			(len_1 x_337 xs_12)
			(x_321 x_338 x_337 n_0))
		false)))
(check-sat)
